&CONTROL
  calculation = 'bands'
  prefix = 'aiida'
  outdir = './out'
  pseudo_dir = './'
  verbosity = 'high'
/
&SYSTEM
  degauss = 2.0000000000d-02
  ecutrho = 2.8000000000d+02
  ecutwfc = 3.5000000000d+01
  ibrav = 0
  nat = 3
  nosym = .false.
  ntyp = 2
  occupations = 'smearing'
  smearing = 'cold'
/
&ELECTRONS
  conv_thr = 6.0000000000d-10
  electron_maxstep = 80
  mixing_beta = 4.0000000000d-01
/
ATOMIC_SPECIES
Mo     95.96 Mo_ONCV_PBEsol-1.0.upf
S      32.065 s_pbesol_v1.4.uspp.F.UPF
ATOMIC_POSITIONS (crystal)
Mo               0.6666670000        0.3333330000        0.7500000000
S                0.3333330000        0.6666670000        0.6463853121
S                0.3333330000        0.6666670000        0.8536146879
CELL_PARAMETERS angstrom
      3.1903160000       0.0000000000       0.0000000000
     -1.5951580000       2.7628947021       0.0000000000
      0.0000000000       0.0000000000      14.8790040000

K_POINTS crystal_b
24
0.0000000000  0.0000000000  0.0000000000  20  
0.5000000000  0.0000000000  0.0000000000  20  
0.3333333333  0.3333333333  0.0000000000  20  
0.0000000000  0.0000000000  0.0000000000  20  
0.0000000000  0.0000000000  0.5000000000  20  
0.5000000000  0.0000000000  0.5000000000  20  
0.3333333333  0.3333333333  0.5000000000  20  
0.0000000000  0.0000000000  0.5000000000  20  
0.5000000000  0.0000000000  0.5000000000  20  
0.5000000000  0.0000000000  0.0000000000  20  
0.3333333333  0.3333333333  0.5000000000  20  
0.3333333333  0.3333333333  0.0000000000  20  
0.0000000000  0.0000000000  0.0000000000  20  
-0.5000000000 -0.0000000000 -0.0000000000  20 
-0.3333333333 -0.3333333333 -0.0000000000  20 
0.0000000000  0.0000000000  0.0000000000  20  
-0.0000000000 -0.0000000000 -0.5000000000  20 
-0.5000000000 -0.0000000000 -0.5000000000  20 
-0.3333333333 -0.3333333333 -0.5000000000  20 
-0.0000000000 -0.0000000000 -0.5000000000  20 
-0.5000000000 -0.0000000000 -0.5000000000  20 
-0.5000000000 -0.0000000000 -0.0000000000  20 
-0.3333333333 -0.3333333333 -0.5000000000  20 
-0.3333333333 -0.3333333333 -0.0000000000  20 

