&DOS
  outdir = './out'
  prefix = 'aiida'
  DeltaE = 0.01
  Emin = -10.0
  Emax = 10.0
/

