&BANDS
    prefix='BaTiO3',
    outdir='./out',
    filband='bands.dat'
/

