&CONTROL
  calculation = 'nscf'
  outdir = './out'
  prefix = 'aiida'
  pseudo_dir = './'
  verbosity = 'high'
/
&SYSTEM
  degauss =   2.0000000000d-02
  ecutrho =   3.6000000000d+02
  ecutwfc =   4.5000000000d+01
  ibrav = 0
  nat = 8
  nosym = .false.
  ntyp = 1
  occupations = 'smearing'
  smearing = 'cold'
/
&ELECTRONS
  conv_thr =   1.6000000000d-09
  electron_maxstep = 80
  mixing_beta =   4.0000000000d-01
/
ATOMIC_SPECIES
C      12.0107 C.pbesol-n-kjpaw_psl.1.0.0.UPF
ATOMIC_POSITIONS (crystal)
C                0.0000000000        0.0000000000        0.2500000000
C                0.0000000000        0.5000000000        0.2500000000
C                0.5000000000        0.0000000000        0.2500000000
C                0.5000000000        0.5000000000        0.2500000000
C                0.1666660000        0.3333330000        0.2500000000
C                0.1666660000        0.8333330000        0.2500000000
C                0.6666660000        0.3333330000        0.2500000000
C                0.6666660000        0.8333330000        0.2500000000
K_POINTS automatic
20 20 18 0 0 0
CELL_PARAMETERS angstrom
      4.9200000000       0.0000000000       0.0000000000
     -2.4600000000       4.2608449866       0.0000000000
      0.0000000000       0.0000000000       5.0000000000

