&CONTROL
  calculation = 'bands'
  etot_conv_thr = 8.0d-5
  forc_conv_thr = 1.0d-4
  outdir = './out'
  prefix = 'aiida'
  pseudo_dir = './'
  tprnfor = .true.
  tstress = .true.
  verbosity = 'high'
/
&SYSTEM
  ibrav = 0
  nat = 8
  ntyp = 1
  ecutwfc = 45.0
  ecutrho = 360.0
  occupations = 'smearing'
  smearing = 'cold'
  degauss = 0.02
  nosym = .true.
/
&ELECTRONS
  conv_thr = 1.6d-9
  mixing_beta = 0.4
  electron_maxstep = 80
/
ATOMIC_SPECIES
C 12.0107 C.pbesol-n-kjpaw_psl.1.0.0.UPF
ATOMIC_POSITIONS (crystal)
C 0.0000000000 0.0000000000 0.2500000000
C 0.0000000000 0.5000000000 0.2500000000
C 0.5000000000 0.0000000000 0.2500000000
C 0.5000000000 0.5000000000 0.2500000000
C 0.1666660000 0.3333330000 0.2500000000
C 0.1666660000 0.8333330000 0.2500000000
C 0.6666660000 0.3333330000 0.2500000000
C 0.6666660000 0.8333330000 0.2500000000
K_POINTS crystal
4
0.000000 0.000000 0.000000 20  
0.500000 0.000000 0.000000 20  
0.333333 0.333333 0.000000 20 
0.000000 0.000000 0.000000 20 
CELL_PARAMETERS angstrom
4.9200000000 0.0000000000 0.0000000000
-2.4600000000 4.2608449866 0.0000000000
0.0000000000 0.0000000000 5.0000000000

